NAME : mEgtspf
TYPE : ATSP
DIMENSION : 55
EDGE_WEIGHT_TYPE : EXPLICIT
EDGE_WEIGHT_FORMAT : FULL_MATRIX
EDGE_WEIGHT_SECTION
99999 0 28 0 40 42 44 46 46 0 0 0 26 0 28 34 38 0 0 18 21 23 22 0 0 0 0 0 15 0 0 32 32 37 40 39 38 0 0 0 0 12 10 0 25 25 29 0 8 0 0 30 30 0 0 
30 99999 2 0 28 30 32 32 28 0 0 0 46 0 22 14 18 0 0 14 13 13 14 0 0 0 0 0 35 0 0 36 38 37 34 33 30 0 0 0 0 20 22 0 29 37 43 0 28 0 0 52 52 0 0 
28 0 99999 0 30 32 34 34 30 0 0 0 48 0 24 16 20 0 0 12 11 11 12 0 0 0 0 0 37 0 0 38 40 39 36 35 32 0 0 0 0 18 20 0 31 39 45 0 26 0 0 54 54 0 0 
41 0 29 99999 1 5 7 9 9 0 0 0 27 0 15 17 13 0 0 23 26 28 27 0 0 0 0 0 36 0 0 9 13 12 7 6 5 0 0 0 0 31 33 0 16 16 18 0 39 0 0 25 25 0 0 
42 0 28 0 99999 4 6 8 8 0 0 0 28 0 16 16 12 0 0 26 25 27 26 0 0 0 0 0 37 0 0 10 14 13 8 7 6 0 0 0 0 32 34 0 17 17 19 0 40 0 0 26 26 0 0 
44 0 32 0 6 99999 2 4 4 0 0 0 30 0 18 20 16 0 0 28 29 31 30 0 0 0 0 0 41 0 0 14 14 9 6 7 8 0 0 0 0 34 36 0 21 21 15 0 42 0 0 22 26 0 0 
46 0 34 0 8 6 99999 4 8 0 0 0 32 0 20 22 18 0 0 30 31 33 32 0 0 0 0 0 43 0 0 16 16 11 8 9 10 0 0 0 0 36 38 0 23 23 19 0 44 0 0 24 28 0 0 
46 0 32 0 8 4 4 99999 4 0 0 0 32 0 20 18 14 0 0 30 27 31 30 0 0 0 0 0 41 0 0 14 14 11 8 9 10 0 0 0 0 36 38 0 21 21 17 0 44 0 0 22 28 0 0 
48 0 28 0 10 6 8 6 99999 0 0 0 34 0 22 16 12 0 0 32 31 31 32 0 0 0 0 0 43 0 0 16 16 13 10 11 12 0 0 0 0 38 40 0 23 23 19 0 46 0 0 26 30 0 0 
14 0 36 0 38 42 44 44 44 99999 0 0 14 0 26 34 38 0 0 30 33 35 34 0 0 0 0 0 5 0 0 32 32 35 38 37 36 0 0 0 0 20 22 0 25 25 29 0 20 0 0 24 18 0 0 
11 0 29 0 41 45 47 47 47 0 99999 0 33 0 29 37 41 0 0 19 20 20 19 0 0 0 0 0 22 0 0 35 35 38 41 40 39 0 0 0 0 13 11 0 28 28 30 0 5 0 0 39 39 0 0 
22 0 44 0 30 34 36 36 36 0 0 99999 6 0 24 32 30 0 0 38 41 43 42 0 0 0 0 0 11 0 0 24 24 27 30 29 28 0 0 0 0 28 30 0 17 17 21 0 28 0 0 16 10 0 0 
24 0 46 0 26 28 30 32 32 0 0 0 99999 0 26 34 30 0 0 40 43 45 44 0 0 0 0 0 13 0 0 18 18 23 26 25 24 0 0 0 0 30 32 0 19 11 15 0 30 0 0 10 8 0 0 
25 0 19 0 17 21 23 23 23 0 0 0 31 99999 5 13 17 0 0 13 16 18 17 0 0 0 0 0 20 0 0 19 23 22 17 16 15 0 0 0 0 15 17 0 14 20 28 0 23 0 0 35 35 0 0 
30 0 22 0 14 16 18 20 20 0 0 0 28 0 99999 8 12 0 0 16 19 21 20 0 0 0 0 0 25 0 0 16 20 19 14 13 12 0 0 0 0 20 22 0 11 17 25 0 28 0 0 32 32 0 0 
36 0 16 0 16 18 20 18 16 0 0 0 34 0 10 99999 4 0 0 20 19 19 22 0 0 0 0 0 33 0 0 22 26 25 20 19 18 0 0 0 0 26 28 0 17 23 31 0 34 0 0 38 38 0 0 
40 0 20 0 12 14 16 14 12 0 0 0 30 0 14 8 99999 0 0 24 23 23 26 0 0 0 0 0 37 0 0 18 22 21 16 15 14 0 0 0 0 30 32 0 17 19 27 0 38 0 0 34 34 0 0 
32 0 6 0 24 26 28 28 24 0 0 0 42 0 18 10 14 99999 0 16 15 15 18 0 0 0 0 0 31 0 0 32 34 33 30 29 26 0 0 0 0 22 24 0 25 33 39 0 30 0 0 48 48 0 0 
22 0 12 0 22 24 26 28 28 0 0 0 38 0 14 16 20 0 99999 4 7 11 10 0 0 0 0 0 27 0 0 28 30 29 26 25 22 0 0 0 0 12 14 0 21 29 35 0 20 0 0 44 44 0 0 
20 0 14 0 26 28 30 32 32 0 0 0 42 0 18 20 24 0 0 99999 3 7 6 0 0 0 0 0 31 0 0 32 34 33 30 29 26 0 0 0 0 14 10 0 25 33 39 0 16 0 0 48 48 0 0 
23 0 11 0 27 29 31 29 29 0 0 0 45 0 21 17 21 0 0 5 99999 4 5 0 0 0 0 0 34 0 0 33 37 36 31 30 29 0 0 0 0 15 13 0 28 34 42 0 19 0 0 49 49 0 0 
25 0 13 0 29 31 33 33 31 0 0 0 47 0 23 19 23 0 0 9 6 99999 3 0 0 0 0 0 36 0 0 37 39 38 35 34 31 0 0 0 0 19 17 0 30 38 44 0 19 0 0 53 53 0 0 
22 0 14 0 26 28 30 32 32 0 0 0 44 0 20 22 26 0 0 6 5 5 99999 0 0 0 0 0 33 0 0 34 36 35 32 31 28 0 0 0 0 16 14 0 27 35 41 0 16 0 0 50 50 0 0 
22 0 46 0 34 38 40 40 40 0 0 0 10 0 24 32 34 0 0 40 41 45 44 99999 0 0 0 0 11 0 0 28 28 31 34 33 32 0 0 0 0 30 32 0 21 21 25 0 28 0 0 20 14 0 0 
25 0 7 0 25 27 29 29 25 0 0 0 43 0 19 13 17 0 0 9 8 8 9 0 99999 0 0 0 32 0 0 33 35 34 31 30 27 0 0 0 0 15 17 0 26 34 40 0 23 0 0 49 49 0 0 
13 0 37 0 41 45 47 47 47 0 0 0 17 0 29 37 41 0 0 31 32 36 35 0 0 99999 0 0 8 0 0 35 35 38 41 40 39 0 0 0 0 21 23 0 28 28 32 0 19 0 0 27 21 0 0 
7 0 25 0 35 39 41 41 41 0 0 0 25 0 23 31 35 0 0 19 22 24 23 0 0 0 99999 0 14 0 0 29 29 32 35 34 33 0 0 0 0 9 11 0 22 22 26 0 9 0 0 29 29 0 0 
11 0 33 0 39 41 43 45 45 0 0 0 15 0 27 33 37 0 0 27 30 32 31 0 0 0 0 99999 4 0 0 31 31 36 39 38 37 0 0 0 0 17 19 0 24 24 28 0 17 0 0 23 21 0 0 
15 0 37 0 35 39 41 41 41 0 0 0 11 0 23 31 35 0 0 31 34 36 35 0 0 0 0 0 99999 0 0 29 29 32 35 34 33 0 0 0 0 21 23 0 22 22 26 0 21 0 0 21 17 0 0 
26 0 24 0 18 20 22 24 24 0 0 0 26 0 6 12 16 0 0 18 19 23 22 0 0 0 0 0 21 99999 0 16 18 17 18 17 16 0 0 0 0 16 18 0 9 17 23 0 24 0 0 32 32 0 0 
31 0 33 0 11 15 17 17 17 0 0 0 17 0 13 21 17 0 0 27 30 32 31 0 0 0 0 0 28 0 99999 5 9 8 11 10 9 0 0 0 0 21 23 0 8 6 14 0 29 0 0 21 21 0 0 
32 0 38 0 10 14 16 16 16 0 0 0 18 0 16 24 20 0 0 32 33 37 36 0 0 0 0 0 29 0 0 99999 4 7 10 9 8 0 0 0 0 22 24 0 9 9 9 0 30 0 0 18 18 0 0 
34 0 40 0 14 12 14 14 14 0 0 0 20 0 20 28 24 0 0 34 37 39 38 0 0 0 0 0 31 0 0 6 99999 5 8 9 12 0 0 0 0 24 26 0 13 11 7 0 32 0 0 14 16 0 0 
39 0 37 0 11 7 9 11 9 0 0 0 25 0 17 25 21 0 0 31 34 36 35 0 0 0 0 0 34 0 0 7 7 99999 5 6 9 0 0 0 0 29 31 0 14 14 10 0 37 0 0 17 21 0 0 
40 0 34 0 6 6 8 10 10 0 0 0 26 0 12 20 16 0 0 28 29 33 32 0 0 0 0 0 35 0 0 8 8 7 99999 1 4 0 0 0 0 30 32 0 15 15 13 0 38 0 0 22 22 0 0 
39 0 33 0 5 7 9 11 11 0 0 0 25 0 11 19 15 0 0 27 28 32 31 0 0 0 0 0 34 0 0 7 9 8 5 99999 3 0 0 0 0 29 31 0 14 14 14 0 37 0 0 23 21 0 0 
40 0 30 0 2 6 8 10 10 0 0 0 26 0 14 18 14 0 0 24 27 29 28 0 0 0 0 0 35 0 0 8 12 11 6 5 99999 0 0 0 0 30 32 0 15 15 17 0 38 0 0 24 24 0 0 
8 0 32 0 44 46 48 50 50 0 0 0 20 0 32 38 42 0 0 26 27 31 30 0 0 0 0 0 9 0 0 36 36 41 44 43 42 99999 0 0 0 16 18 0 29 29 33 0 14 0 0 28 24 0 0 
11 0 31 0 31 35 37 37 37 0 0 0 19 0 19 27 31 0 0 25 28 30 29 0 0 0 0 0 8 0 0 25 25 28 31 30 29 0 99999 0 0 15 17 0 18 18 22 0 15 0 0 23 23 0 0 
11 0 37 0 49 51 53 55 55 0 0 0 25 0 37 43 47 0 0 27 28 28 25 0 0 0 0 0 14 0 0 41 41 46 49 48 47 0 0 99999 0 21 19 0 34 34 38 0 13 0 0 33 31 0 0 
10 0 20 0 34 36 38 40 40 0 0 0 30 0 22 28 32 0 0 14 15 19 18 0 0 0 0 0 19 0 0 26 26 31 34 33 32 0 0 0 99999 4 6 0 19 21 27 0 8 0 0 36 36 0 0 
12 0 18 0 32 34 36 38 38 0 0 0 32 0 20 26 30 0 0 12 13 17 16 0 0 0 0 0 21 0 0 24 24 29 32 31 30 0 0 0 0 99999 2 0 17 23 29 0 10 0 0 38 38 0 0 
12 0 22 0 34 36 38 40 40 0 0 0 34 0 22 28 32 0 0 10 11 15 14 0 0 0 0 0 23 0 0 26 26 31 34 33 32 0 0 0 0 6 99999 0 19 25 31 0 8 0 0 40 40 0 0 
26 0 26 0 16 20 22 22 22 0 0 0 24 0 4 12 16 0 0 20 21 25 24 0 0 0 0 0 23 0 0 14 16 15 16 15 14 0 0 0 0 16 18 99999 7 15 21 0 24 0 0 30 30 0 0 
27 0 31 0 15 19 21 21 21 0 0 0 19 0 11 19 15 0 0 25 28 30 29 0 0 0 0 0 24 0 0 7 11 12 15 14 13 0 0 0 0 17 19 0 99999 8 16 0 25 0 0 23 23 0 0 
25 0 39 0 17 21 23 23 23 0 0 0 11 0 17 25 21 0 0 33 34 38 37 0 0 0 0 0 22 0 0 11 11 14 17 16 15 0 0 0 0 23 25 0 10 99999 8 0 23 0 0 17 17 0 0 
31 0 45 0 19 15 17 17 17 0 0 0 17 0 25 33 29 0 0 39 42 44 43 0 0 0 0 0 28 0 0 11 9 8 13 14 17 0 0 0 0 29 31 0 18 10 99999 0 29 0 0 9 13 0 0 
8 0 26 0 38 42 44 44 44 0 0 0 30 0 26 34 38 0 0 16 17 19 18 0 0 0 0 0 19 0 0 32 32 35 38 37 36 0 0 0 0 10 8 0 25 25 29 99999 2 0 0 34 34 0 0 
10 0 26 0 38 40 42 44 44 0 0 0 32 0 26 32 36 0 0 16 17 17 16 0 0 0 0 0 21 0 0 30 30 35 38 37 36 0 0 0 0 10 8 0 23 23 27 0 99999 0 0 36 36 0 0 
18 0 20 0 32 34 36 38 38 0 0 0 40 0 20 26 30 0 0 10 11 9 8 0 0 0 0 0 29 0 0 28 32 29 32 31 30 0 0 0 0 10 8 0 23 29 37 0 12 99999 0 44 44 0 0 
27 0 49 0 23 21 19 19 23 0 0 0 15 0 29 37 33 0 0 43 46 48 47 0 0 0 0 0 24 0 0 15 13 14 17 18 21 0 0 0 0 33 35 0 22 14 8 0 33 0 99999 5 11 0 0 
30 0 54 0 26 24 24 24 26 0 0 0 10 0 32 40 36 0 0 48 49 53 52 0 0 0 0 0 21 0 0 20 16 17 22 23 24 0 0 0 0 38 40 0 25 19 11 0 36 0 0 99999 6 0 0 
28 0 52 0 24 26 28 30 30 0 0 0 6 0 30 38 34 0 0 46 47 51 50 0 0 0 0 0 17 0 0 18 16 21 24 21 22 0 0 0 0 36 38 0 23 17 13 0 34 0 0 8 99999 0 0 
25 0 13 0 17 19 21 23 23 0 0 0 37 0 13 13 17 0 0 9 10 12 11 0 0 0 0 0 26 0 0 25 29 28 23 22 21 0 0 0 0 15 17 0 20 26 34 0 23 0 0 41 41 99999 0 
2 0 30 0 42 44 46 48 48 0 0 0 24 0 30 36 40 0 0 20 23 25 24 0 0 0 0 0 13 0 0 34 34 39 42 41 40 0 0 0 0 14 12 0 27 27 31 0 10 0 0 28 28 0 99999 
EOF
